Traveling Salesman Problem/TSP_generados/Aleatorio1621103287_8.tsp
NAME: Aleatorio1621103287_8.tsp
COMMENT: Randomly generated scenario
TYPE: TSP
DIMENSION: 8
EDGE_WEIGHT_TYPE: ATT
NODE_COORD_SECTION
1 10.93 23.16
2 34.95 42.02
3 12.53 42.83
4 2.25 35.89
5 40.01 32.52
6 32.8 29.41
7 12.18 49.53
8 44.26 48.39
