Traveling Salesman Problem/TSP_generados/Aleatorio1621103287_8.opt.tour
NAME: Aleatorio1621103287_8.opt.tour
COMMENT: Optimal solution for Aleatorio1621103287_8 (116.80414176328819)
TYPE: TOUR
DIMENSION: 8
TOUR_SECTION
1 4 3 7 2 8 5 6
-1
EOF
